161 97 30 82 26 167 106 69 1 104 36 148 143 158 91 155 0 153 44 65 185 75 38 23 174 100 54 198 137 176 113 33 130 144 94 92 53 5 123 147 51 180 194 40 18 170 49 127 7 109 3 184 133 172 193 107 98 72 191 146 117 110 93 103 162 132 151 29 95 62 64 149 195 43 126 102 32 129 71 179 46 115 131 10 74 56 6 61 150 12 178 13 20 118 197 77 57 27 145 175 39 186 59 81 124 79 168 125 99 187 55 28 42 154 47 25 157 76 86 140 37 63 90 183 34 152 196 24 14 11 89 87 141 189 108 19 169 142 22 121 199 134 160 138 116 122 156 182 8 165 41 31 9 88 105 166 48 68 135 35 120 2 84 163 173 188 58 192 78 52 85 111 4 67 60 114 159 16 83 181 17 73 45 171 50 80 96 139 128 101 119 190 164 21 70 112 15 177 66 136 

